NAME: tsp50_30
COMMENT: 50-tsp problem (Padberg/Rinaldi)
TYPE: TSP
DIMENSION: 50
EDGE_WEIGHT_TYPE : EUC_2D
NODE_COORD_SECTION
1 23 12
2 2 36
3 8 24
4 2 5
5 36 29
6 30 38
7 37 6
8 1 35
9 3 39
10 28 3
11 18 32
12 32 39
13 1 21
14 12 37
15 4 15
16 8 25
17 29 6
18 17 32
19 16 29
20 7 25
21 22 18
22 29 33
23 34 29
24 24 13
25 39 24
26 10 31
27 1 0
28 12 35
29 19 12
30 12 9
31 10 22
32 20 3
33 32 40
34 11 35
35 32 32
36 28 28
37 33 16
38 4 9
39 6 6
40 18 5
41 29 13
42 7 34
43 5 28
44 10 36
45 19 2
46 0 30
47 12 16
48 23 15
49 2 37
50 14 18
